sat
(:max-memory          18.44
 :memory              18.06
 :nlsat-conflicts     1
 :nlsat-decisions     2
 :nlsat-learned-added 1
 :nlsat-propagations  25
 :nlsat-stages        5
 :num-allocs          21888
 :rlimit-count        42644
 :time                0.03
 :total-time          0.03)
